c Result of efficient AIG-to-CNF conversion using package CNF
p cnf 10 16
-2 3 4 0
-2 6 9 4 0
-2 -6 -9 4 0
2 -4 0
2 6 -9 -3 0
2 -6 9 -3 0
3 5 -11 0
-3 -5 0
-3 11 0
4 -5 -6 -9 0
4 -5 -8 -9 0
-4 9 0
-4 5 0
-4 6 8 0
-12 0
-2 0

